; php6_nonsnf.smt2
; Pigeonhole Principle: 7 pigeons, 6 holes  (PHP_6)
; Theory: QF_LIA  (NON-SNF baseline -- mechanical QE, big-OR/pairwise)
; Expected: UNSAT
;
; This is the THIRD encoding point: same QF_LIA theory as the
; structured (SNF) version, but built by literally translating
; forall/exists into big-OR + pairwise clauses -- NO structural
; reduction via row-sum/column-sum symmetry. Isolates whether
; stability comes from the theory (QF_LIA easier than AUFLIA)
; or from the SNF structural derivation specifically.
;
; Clause count: 7 big-OR clauses (row coverage)
;            + 126 pairwise exclusion clauses
; vs SNF structured: 13 linear constraints total

(set-logic QF_LIA)

; 7x6 = 42 assignment variables (0/1 Int)
(declare-const a00 Int) (declare-const a01 Int) (declare-const a02 Int) (declare-const a03 Int) (declare-const a04 Int) (declare-const a05 Int)
(declare-const a10 Int) (declare-const a11 Int) (declare-const a12 Int) (declare-const a13 Int) (declare-const a14 Int) (declare-const a15 Int)
(declare-const a20 Int) (declare-const a21 Int) (declare-const a22 Int) (declare-const a23 Int) (declare-const a24 Int) (declare-const a25 Int)
(declare-const a30 Int) (declare-const a31 Int) (declare-const a32 Int) (declare-const a33 Int) (declare-const a34 Int) (declare-const a35 Int)
(declare-const a40 Int) (declare-const a41 Int) (declare-const a42 Int) (declare-const a43 Int) (declare-const a44 Int) (declare-const a45 Int)
(declare-const a50 Int) (declare-const a51 Int) (declare-const a52 Int) (declare-const a53 Int) (declare-const a54 Int) (declare-const a55 Int)
(declare-const a60 Int) (declare-const a61 Int) (declare-const a62 Int) (declare-const a63 Int) (declare-const a64 Int) (declare-const a65 Int)

; Bounds: 0 <= a[p][h] <= 1
(assert (>= a00 0))(assert (<= a00 1))
(assert (>= a01 0))(assert (<= a01 1))
(assert (>= a02 0))(assert (<= a02 1))
(assert (>= a03 0))(assert (<= a03 1))
(assert (>= a04 0))(assert (<= a04 1))
(assert (>= a05 0))(assert (<= a05 1))
(assert (>= a10 0))(assert (<= a10 1))
(assert (>= a11 0))(assert (<= a11 1))
(assert (>= a12 0))(assert (<= a12 1))
(assert (>= a13 0))(assert (<= a13 1))
(assert (>= a14 0))(assert (<= a14 1))
(assert (>= a15 0))(assert (<= a15 1))
(assert (>= a20 0))(assert (<= a20 1))
(assert (>= a21 0))(assert (<= a21 1))
(assert (>= a22 0))(assert (<= a22 1))
(assert (>= a23 0))(assert (<= a23 1))
(assert (>= a24 0))(assert (<= a24 1))
(assert (>= a25 0))(assert (<= a25 1))
(assert (>= a30 0))(assert (<= a30 1))
(assert (>= a31 0))(assert (<= a31 1))
(assert (>= a32 0))(assert (<= a32 1))
(assert (>= a33 0))(assert (<= a33 1))
(assert (>= a34 0))(assert (<= a34 1))
(assert (>= a35 0))(assert (<= a35 1))
(assert (>= a40 0))(assert (<= a40 1))
(assert (>= a41 0))(assert (<= a41 1))
(assert (>= a42 0))(assert (<= a42 1))
(assert (>= a43 0))(assert (<= a43 1))
(assert (>= a44 0))(assert (<= a44 1))
(assert (>= a45 0))(assert (<= a45 1))
(assert (>= a50 0))(assert (<= a50 1))
(assert (>= a51 0))(assert (<= a51 1))
(assert (>= a52 0))(assert (<= a52 1))
(assert (>= a53 0))(assert (<= a53 1))
(assert (>= a54 0))(assert (<= a54 1))
(assert (>= a55 0))(assert (<= a55 1))
(assert (>= a60 0))(assert (<= a60 1))
(assert (>= a61 0))(assert (<= a61 1))
(assert (>= a62 0))(assert (<= a62 1))
(assert (>= a63 0))(assert (<= a63 1))
(assert (>= a64 0))(assert (<= a64 1))
(assert (>= a65 0))(assert (<= a65 1))

; Big-OR: each pigeon in at least one hole (mechanical exists elimination)
; forall p. exists h. InHole(p,h)  -->  OR over all holes per pigeon
(assert (or (= a00 1) (= a01 1) (= a02 1) (= a03 1) (= a04 1) (= a05 1)))
(assert (or (= a10 1) (= a11 1) (= a12 1) (= a13 1) (= a14 1) (= a15 1)))
(assert (or (= a20 1) (= a21 1) (= a22 1) (= a23 1) (= a24 1) (= a25 1)))
(assert (or (= a30 1) (= a31 1) (= a32 1) (= a33 1) (= a34 1) (= a35 1)))
(assert (or (= a40 1) (= a41 1) (= a42 1) (= a43 1) (= a44 1) (= a45 1)))
(assert (or (= a50 1) (= a51 1) (= a52 1) (= a53 1) (= a54 1) (= a55 1)))
(assert (or (= a60 1) (= a61 1) (= a62 1) (= a63 1) (= a64 1) (= a65 1)))

; Pairwise exclusion: no two pigeons share a hole
; forall p1 p2 h. (p1!=p2 AND InHole(p1,h)) => NOT InHole(p2,h)
; --> one explicit clause per (pigeon-pair, hole) triple, NOT row/column-sum
(assert (not (and (= a00 1) (= a10 1))))
(assert (not (and (= a00 1) (= a20 1))))
(assert (not (and (= a00 1) (= a30 1))))
(assert (not (and (= a00 1) (= a40 1))))
(assert (not (and (= a00 1) (= a50 1))))
(assert (not (and (= a00 1) (= a60 1))))
(assert (not (and (= a10 1) (= a20 1))))
(assert (not (and (= a10 1) (= a30 1))))
(assert (not (and (= a10 1) (= a40 1))))
(assert (not (and (= a10 1) (= a50 1))))
(assert (not (and (= a10 1) (= a60 1))))
(assert (not (and (= a20 1) (= a30 1))))
(assert (not (and (= a20 1) (= a40 1))))
(assert (not (and (= a20 1) (= a50 1))))
(assert (not (and (= a20 1) (= a60 1))))
(assert (not (and (= a30 1) (= a40 1))))
(assert (not (and (= a30 1) (= a50 1))))
(assert (not (and (= a30 1) (= a60 1))))
(assert (not (and (= a40 1) (= a50 1))))
(assert (not (and (= a40 1) (= a60 1))))
(assert (not (and (= a50 1) (= a60 1))))
(assert (not (and (= a01 1) (= a11 1))))
(assert (not (and (= a01 1) (= a21 1))))
(assert (not (and (= a01 1) (= a31 1))))
(assert (not (and (= a01 1) (= a41 1))))
(assert (not (and (= a01 1) (= a51 1))))
(assert (not (and (= a01 1) (= a61 1))))
(assert (not (and (= a11 1) (= a21 1))))
(assert (not (and (= a11 1) (= a31 1))))
(assert (not (and (= a11 1) (= a41 1))))
(assert (not (and (= a11 1) (= a51 1))))
(assert (not (and (= a11 1) (= a61 1))))
(assert (not (and (= a21 1) (= a31 1))))
(assert (not (and (= a21 1) (= a41 1))))
(assert (not (and (= a21 1) (= a51 1))))
(assert (not (and (= a21 1) (= a61 1))))
(assert (not (and (= a31 1) (= a41 1))))
(assert (not (and (= a31 1) (= a51 1))))
(assert (not (and (= a31 1) (= a61 1))))
(assert (not (and (= a41 1) (= a51 1))))
(assert (not (and (= a41 1) (= a61 1))))
(assert (not (and (= a51 1) (= a61 1))))
(assert (not (and (= a02 1) (= a12 1))))
(assert (not (and (= a02 1) (= a22 1))))
(assert (not (and (= a02 1) (= a32 1))))
(assert (not (and (= a02 1) (= a42 1))))
(assert (not (and (= a02 1) (= a52 1))))
(assert (not (and (= a02 1) (= a62 1))))
(assert (not (and (= a12 1) (= a22 1))))
(assert (not (and (= a12 1) (= a32 1))))
(assert (not (and (= a12 1) (= a42 1))))
(assert (not (and (= a12 1) (= a52 1))))
(assert (not (and (= a12 1) (= a62 1))))
(assert (not (and (= a22 1) (= a32 1))))
(assert (not (and (= a22 1) (= a42 1))))
(assert (not (and (= a22 1) (= a52 1))))
(assert (not (and (= a22 1) (= a62 1))))
(assert (not (and (= a32 1) (= a42 1))))
(assert (not (and (= a32 1) (= a52 1))))
(assert (not (and (= a32 1) (= a62 1))))
(assert (not (and (= a42 1) (= a52 1))))
(assert (not (and (= a42 1) (= a62 1))))
(assert (not (and (= a52 1) (= a62 1))))
(assert (not (and (= a03 1) (= a13 1))))
(assert (not (and (= a03 1) (= a23 1))))
(assert (not (and (= a03 1) (= a33 1))))
(assert (not (and (= a03 1) (= a43 1))))
(assert (not (and (= a03 1) (= a53 1))))
(assert (not (and (= a03 1) (= a63 1))))
(assert (not (and (= a13 1) (= a23 1))))
(assert (not (and (= a13 1) (= a33 1))))
(assert (not (and (= a13 1) (= a43 1))))
(assert (not (and (= a13 1) (= a53 1))))
(assert (not (and (= a13 1) (= a63 1))))
(assert (not (and (= a23 1) (= a33 1))))
(assert (not (and (= a23 1) (= a43 1))))
(assert (not (and (= a23 1) (= a53 1))))
(assert (not (and (= a23 1) (= a63 1))))
(assert (not (and (= a33 1) (= a43 1))))
(assert (not (and (= a33 1) (= a53 1))))
(assert (not (and (= a33 1) (= a63 1))))
(assert (not (and (= a43 1) (= a53 1))))
(assert (not (and (= a43 1) (= a63 1))))
(assert (not (and (= a53 1) (= a63 1))))
(assert (not (and (= a04 1) (= a14 1))))
(assert (not (and (= a04 1) (= a24 1))))
(assert (not (and (= a04 1) (= a34 1))))
(assert (not (and (= a04 1) (= a44 1))))
(assert (not (and (= a04 1) (= a54 1))))
(assert (not (and (= a04 1) (= a64 1))))
(assert (not (and (= a14 1) (= a24 1))))
(assert (not (and (= a14 1) (= a34 1))))
(assert (not (and (= a14 1) (= a44 1))))
(assert (not (and (= a14 1) (= a54 1))))
(assert (not (and (= a14 1) (= a64 1))))
(assert (not (and (= a24 1) (= a34 1))))
(assert (not (and (= a24 1) (= a44 1))))
(assert (not (and (= a24 1) (= a54 1))))
(assert (not (and (= a24 1) (= a64 1))))
(assert (not (and (= a34 1) (= a44 1))))
(assert (not (and (= a34 1) (= a54 1))))
(assert (not (and (= a34 1) (= a64 1))))
(assert (not (and (= a44 1) (= a54 1))))
(assert (not (and (= a44 1) (= a64 1))))
(assert (not (and (= a54 1) (= a64 1))))
(assert (not (and (= a05 1) (= a15 1))))
(assert (not (and (= a05 1) (= a25 1))))
(assert (not (and (= a05 1) (= a35 1))))
(assert (not (and (= a05 1) (= a45 1))))
(assert (not (and (= a05 1) (= a55 1))))
(assert (not (and (= a05 1) (= a65 1))))
(assert (not (and (= a15 1) (= a25 1))))
(assert (not (and (= a15 1) (= a35 1))))
(assert (not (and (= a15 1) (= a45 1))))
(assert (not (and (= a15 1) (= a55 1))))
(assert (not (and (= a15 1) (= a65 1))))
(assert (not (and (= a25 1) (= a35 1))))
(assert (not (and (= a25 1) (= a45 1))))
(assert (not (and (= a25 1) (= a55 1))))
(assert (not (and (= a25 1) (= a65 1))))
(assert (not (and (= a35 1) (= a45 1))))
(assert (not (and (= a35 1) (= a55 1))))
(assert (not (and (= a35 1) (= a65 1))))
(assert (not (and (= a45 1) (= a55 1))))
(assert (not (and (= a45 1) (= a65 1))))
(assert (not (and (= a55 1) (= a65 1))))

; Total pairwise clauses: 126

(check-sat)
; UNSAT: same answer as SNF, but reached via full unreduced clause set
